p cnf 36 98
27  0
-17  0
-22  0
-32  0
26  0
-1 32  0
-1 18  0
-2 33  0
-2 19  0
-3 34  0
-3 20  0
-4 35  0
-4 21  0
-5 27  0
-5 17  0
-5 23  0
-5 -18  0
-6 28  0
-6 18  0
-6 24  0
-6 -19  0
-7 29  0
-7 19  0
-7 25  0
-7 -20  0
-8 30  0
-8 20  0
-8 26  0
-8 -21  0
-9 27  0
-9 33  0
-9 -28  0
-10 28  0
-10 34  0
-10 -29  0
-11 29  0
-11 35  0
-11 -30  0
-12 30  0
-12 36  0
-12 -31  0
-13 32  0
-13 28  0
-13 -33  0
-14 33  0
-14 29  0
-14 -34  0
-15 34  0
-15 30  0
-15 -35  0
-16 35  0
-16 31  0
-16 -36  0
17 -18 1  0
-17 18 5  0
18 -19 2  0
-18 19 6  0
19 -20 3  0
-19 20 7  0
20 -21 4  0
-20 21 8  0
22 -23 5  0
-22 23  0
23 -24 6  0
-23 24  0
24 -25 7  0
-24 25  0
25 -26 8  0
-25 26  0
27 -28 13  0
-27 28 9  0
28 -29 14  0
-28 29 10  0
29 -30 15  0
-29 30 11  0
30 -31 16  0
-30 31 12  0
32 -33 9  0
-32 33 13  0
33 -34 10  0
-33 34 14  0
34 -35 11  0
-34 35 15  0
35 -36 12  0
-35 36 16  0
-5 -9  0
-6 -10  0
-7 -11  0
-8 -12  0
-1 -13  0
-2 -14  0
-3 -15  0
-4 -16  0
-1  0
-5  0
-6  0
-7  0
-13  0
